peakDumbCharging = 25900; 
Machine = anon_enum(16); 
machineSpeed = [3700,3700,3700,3700,3700,3700,3700,3700,3700,3700,3700,3700,3700,3700,3700,3700]; 
machineLoad = [3700,3700,3700,3700,3700,3700,3700,3700,3700,3700,3700,3700,3700,3700,3700,3700]; 
Car = anon_enum(35); 
demandCar = [10200,9280,4240,4640,3000,5480,8440,13400,5560,20000,3400,22560,8480,6320,3600,9840,15400,5480,6320,4240,5760,10840,2000,5840,14200,1480,3480,2920,9040,8160,4600,22920,11600,27240,12800]; 
arrivalCar = [70,70,69,67,66,66,64,64,64,63,62,62,60,60,59,58,57,55,53,52,50,46,43,43,40,40,39,39,37,37,37,35,34,30,18]; 
departureCar = [75,76,72,71,69,68,71,71,67,76,65,73,66,64,61,63,64,58,56,54,53,51,45,51,46,43,42,40,43,43,40,52,38,45,23]; 
